(set-logic HORN)
(declare-fun state (Int (Array Int Int) (Array Int Int) (Array Int Int) (Array Int Int) Int Int (Array Int Int) (Array Int Int) Int Int Int Int Int Int Int Int Int Int Int Int Bool Bool Bool Bool Bool (Array Int Int)) Bool)
(assert (forall ((|A_16| Int) (|B_16| (Array Int Int)) (|C_16| (Array Int Int)) (|D_16| (Array Int Int)) (|E_16| (Array Int Int)) (|F_16| Int) (|G_16| Int) (|H_16| (Array Int Int)) (|I_16| (Array Int Int)) (|J_16| Int) (|K_16| Int) (|L_16| Int) (|M_16| Int) (|N_16| Int) (|O_16| Int) (|P_16| Int) (|Q_16| Int) (|R_16| Int) (|S_16| Int) (|T_16| Int) (|U_16| Int) (|W_8| Bool) (|.loc.5| Bool) (|.loc.6| Bool) (|.loc.7| Bool) (|.loc.8| Bool) (|W_0| (Array Int Int)) (|.x.359| Int) (|.x.357| (Array Int Int)) (|.x.355| Int) (|.x.353| (Array Int Int)) (|.x.349| Int) (|.x.351| (Array Int Int)) (|.x.350| (Array Int Int)) (|V_16| Bool) (|.x.360| Int) (|.x.361| Int) (|.x.362| Int) (|.x.364| Int) (|.loc.10| Bool) (|.x.365| Int) (|.x.363| Int) (|.x.368| Int) (|.loc.12| Bool) (|.loc.9| Bool) (|.loc.11| Bool) (|.x.369| Int) (|.x.367| Int) (|.x.366| Int) (|.x.352| (Array Int Int)) (|.x.358| Int) (|.x.354| Int) (|.x.356| (Array Int Int)) (|.xtv.1| (Array Int Int))) (=> (and (and (and (and .loc.5 (not .loc.6)) (not .loc.7)) (not .loc.8)) (and (and (and (and (and (= D_16 E_16) (not W_8)) (= F_16 G_16)) (= J_16 K_16)) (= H_16 I_16)) (= B_16 C_16))) (state |A_16| |B_16| |C_16| |D_16| |E_16| |F_16| |G_16| |H_16| |I_16| |J_16| |K_16| |L_16| |M_16| |N_16| |O_16| |P_16| |Q_16| |R_16| |S_16| |T_16| |U_16| |W_8| |.loc.5| |.loc.6| |.loc.7| |.loc.8| |W_0|))))
(assert (forall ((|A_16| Int) (|B_16| (Array Int Int)) (|C_16| (Array Int Int)) (|D_16| (Array Int Int)) (|E_16| (Array Int Int)) (|F_16| Int) (|G_16| Int) (|H_16| (Array Int Int)) (|I_16| (Array Int Int)) (|J_16| Int) (|K_16| Int) (|L_16| Int) (|M_16| Int) (|N_16| Int) (|O_16| Int) (|P_16| Int) (|Q_16| Int) (|R_16| Int) (|S_16| Int) (|T_16| Int) (|U_16| Int) (|W_8| Bool) (|.loc.5| Bool) (|.loc.6| Bool) (|.loc.7| Bool) (|.loc.8| Bool) (|W_0| (Array Int Int)) (|.x.359| Int) (|.x.357| (Array Int Int)) (|.x.355| Int) (|.x.353| (Array Int Int)) (|.x.349| Int) (|.x.351| (Array Int Int)) (|.x.350| (Array Int Int)) (|V_16| Bool) (|.x.360| Int) (|.x.361| Int) (|.x.362| Int) (|.x.364| Int) (|.loc.10| Bool) (|.x.365| Int) (|.x.363| Int) (|.x.368| Int) (|.loc.12| Bool) (|.loc.9| Bool) (|.loc.11| Bool) (|.x.369| Int) (|.x.367| Int) (|.x.366| Int) (|.x.352| (Array Int Int)) (|.x.358| Int) (|.x.354| Int) (|.x.356| (Array Int Int)) (|.xtv.1| (Array Int Int))) (=> (and (state |A_16| |B_16| |C_16| |D_16| |E_16| |F_16| |G_16| |H_16| |I_16| |J_16| |K_16| |L_16| |M_16| |N_16| |O_16| |P_16| |Q_16| |R_16| |S_16| |T_16| |U_16| |W_8| |.loc.5| |.loc.6| |.loc.7| |.loc.8| |W_0|) (let ((.def_37 (not .loc.6))) (let ((.def_39 (not .loc.7))) (let ((.def_41 (not .loc.8))) (let ((.def_73 (= B_16 .x.350))) (let ((.def_77 (= L_16 .x.360))) (let ((.def_80 (= M_16 .x.361))) (let ((.def_83 (= N_16 .x.362))) (let ((.def_86 (= P_16 .x.364))) (let ((.def_88 (not .loc.5))) (let ((.def_99 (= W_8 V_16))) (let ((.def_108 (= O_16 0))) (let ((.def_112 (and .def_83 (and .def_80 (and .def_73 .def_77))))) (let ((.def_113 (and .def_86 .def_112))) (let ((.def_118 (not .loc.10))) (let ((.def_124 (= Q_16 .x.365))) (let ((.def_126 (= O_16 .x.363))) (let ((.def_129 (= T_16 .x.368))) (let ((.def_134 (not .loc.9))) (let ((.def_137 (not .loc.11))) (let ((.def_144 (select D_16 N_16))) (let ((.def_148 (<= 100000 U_16))) (let ((.def_167 (not .loc.12))) (let ((.def_172 (= U_16 .x.369))) (let ((.def_174 (= S_16 .x.367))) (let ((.def_183 (and .def_86 (and .def_112 .def_126)))) (let ((.def_200 (and .def_129 (and .def_174 (and .def_124 .def_183))))) (let ((.def_212 (and W_8 .def_73))) (let ((.def_221 (and .def_172 (and .def_129 (and .def_174 (and .def_124 (and .def_86 (and .def_126 (and .def_83 (and .def_80 (and .def_77 .def_212))))))))))) (let ((.def_233 (and .def_172 .def_200))) (let ((.def_234 (and .loc.6 .def_233))) (let ((.def_257 (and .def_37 (and .def_88 (and .loc.7 .def_233))))) (let ((.def_264 (<= 100000 R_16))) (let ((.def_265 (or W_8 .def_264))) (let ((.def_269 (= R_16 .x.366))) (let ((.def_271 (= D_16 .x.352))) (let ((.def_283 (and (not .def_264) (= (+ R_16 (* (- 1) .x.366)) (- 1))))) (let ((.def_302 (and .def_124 (and .def_86 (and .def_126 (and .def_83 (and .def_80 (and .def_77 (and .def_73 .def_271))))))))) (let ((.def_306 (and .def_172 (and .def_129 (and .def_174 (and .def_269 .def_302)))))) (let ((.def_328 (and .def_172 (and .def_129 (and .def_174 (and .def_269 (and .def_124 (and .def_86 (and .def_126 (and .def_83 (and .def_80 (and .def_77 (and .def_212 .def_271))))))))))))) (let ((.def_339 (= .x.366 0))) (and (and (= K_16 .x.359) (and (= I_16 .x.357) (and (= G_16 .x.355) (and (= E_16 .x.353) (and (= A_16 .x.349) (= C_16 .x.351)))))) (or (and (or (or (or (or (or (or (or (and (or (or (or (or (or (or (and (or (and (or (and (or (and (and (and (and (and (and .def_73 V_16) .def_77) .def_80) .def_83) .def_86) .def_88) (and (or W_8 (and (= .x.364 0) (= .x.350 (store B_16 N_16 0)))) (and (and .loc.5 (or V_16 (= .x.360 .x.364))) .def_99))) (and (and .def_39 (and .loc.8 .def_37)) .loc.10)) (and (or W_8 .def_108) (and .def_41 (and (and .def_99 (and .loc.7 (and .loc.6 (and .loc.5 .def_113)))) .def_118)))) (and (and (and (and (and .def_124 .def_126) .def_129) .loc.12) .def_134) .def_137)) (and (or W_8 (and (= .x.363 .x.368) (and (= .x.365 (select .def_144 (+ M_16 (* 4 U_16)))) (and (not .def_148) (= .x.368 (ite (= .x.365 43) 1 0)))))) (and (and .def_41 (and .def_99 (and .loc.11 (and .loc.10 (and .loc.9 (and .def_88 (and .loc.7 (and .loc.6 .def_113)))))))) .def_167))) (and .def_172 .def_174)) (and (or V_16 (= (+ U_16 (* (- 1) .x.369)) (- 1))) (and .def_167 (and .def_41 (and .def_99 (and .def_134 (and .loc.11 (and .loc.10 (and .def_39 (and .def_37 (and .def_88 (and .def_129 .def_183)))))))))))) (and (or W_8 (= .x.369 0)) (and .def_167 (and .def_41 (and .def_99 (and .def_134 (and .loc.11 (and .loc.10 (and .def_37 (and .loc.7 (and .loc.5 .def_200))))))))))) (and .def_41 (and .def_118 (and .def_99 (and .def_137 (and .loc.12 (and .loc.9 (and .def_88 (and .loc.7 (and .loc.6 .def_221)))))))))) (and (or W_8 .def_148) (and .def_41 (and .def_118 (and .def_99 (and .def_137 (and .loc.12 (and .loc.9 (and .def_88 (and .loc.7 .def_234)))))))))) (and .def_167 (and .def_41 (and .def_118 (and .def_99 (and .loc.11 (and .loc.9 (and .def_37 (and .def_88 (and .loc.7 .def_221)))))))))) (and (and .def_167 (and .def_41 (and .def_118 (and .def_99 (and .loc.11 (and .loc.9 .def_257)))))) .def_265)) (and .def_269 .def_271)) (and (or W_8 (and (= .x.352 (store D_16 N_16 (store .def_144 (+ M_16 (* 4 R_16)) 43))) .def_283)) (and .def_167 (and .def_41 (and .def_118 (and .def_99 (and .def_134 (and .loc.11 .def_257)))))))) (and (or W_8 (not .def_108)) (and .def_167 (and .def_41 (and .def_118 (and .def_99 (and .def_137 (and .def_134 (and .loc.7 (and .loc.6 (and .loc.5 .def_306))))))))))) (and .def_167 (and .def_118 (and .def_99 (and .def_137 (and .def_134 (and .def_39 (and .def_37 (and .def_88 (and .loc.8 .def_328)))))))))) (and (or W_8 .def_339) (and .def_167 (and .def_41 (and .def_118 (and .def_99 (and .def_134 (and .loc.11 (and .def_39 (and .loc.6 (and .loc.5 (and .def_172 (and .def_129 (and .def_174 .def_302)))))))))))))) (and .def_167 (and .def_41 (and .def_99 (and .def_137 (and .loc.10 (and .loc.9 (and .def_39 (and .def_88 (and .loc.6 .def_328)))))))))) (and .def_265 (and .def_167 (and .def_41 (and .def_99 (and .def_137 (and .loc.10 (and .loc.9 (and .def_39 (and .def_88 (and .loc.6 .def_306))))))))))) (and (or W_8 (and .def_283 (= .x.352 (store D_16 N_16 (store .def_144 (+ M_16 (* 4 R_16)) 42))))) (and .def_167 (and .def_41 (and .def_99 (and .def_137 (and .def_134 (and .loc.10 (and .def_39 (and .def_88 .def_234)))))))))) (and (= J_16 .x.358) (and (= F_16 .x.354) (= H_16 .x.356)))) (and (or W_8 (and (and (= .x.358 0) (= .x.354 0)) (= W_0 (store B_16 0 0)))) (and (or V_16 (and (and (and (and (and (and .def_339 (not (<= .x.349 .x.362))) (not (= .x.362 0))) (= .x.361 0)) (= (select W_0 .x.362) 0)) (= .x.356 (store H_16 .x.362 400000))) (= .x.350 (store W_0 .x.362 1)))) (and .def_167 (and .def_41 (and .def_99 (and .def_137 (and .def_134 (and .loc.10 (and .def_39 (and .def_37 (and .loc.5 (and .def_129 (and .def_126 (and .def_77 .def_271))))))))))))))))))))))))))))))))))))))))))))))))))))))))) (state |.x.349| |.x.350| |.x.351| |.x.352| |.x.353| |.x.354| |.x.355| |.x.356| |.x.357| |.x.358| |.x.359| |.x.360| |.x.361| |.x.362| |.x.363| |.x.364| |.x.365| |.x.366| |.x.367| |.x.368| |.x.369| |V_16| |.loc.9| |.loc.10| |.loc.11| |.loc.12| |.xtv.1|))))
(assert (forall ((|A_16| Int) (|B_16| (Array Int Int)) (|C_16| (Array Int Int)) (|D_16| (Array Int Int)) (|E_16| (Array Int Int)) (|F_16| Int) (|G_16| Int) (|H_16| (Array Int Int)) (|I_16| (Array Int Int)) (|J_16| Int) (|K_16| Int) (|L_16| Int) (|M_16| Int) (|N_16| Int) (|O_16| Int) (|P_16| Int) (|Q_16| Int) (|R_16| Int) (|S_16| Int) (|T_16| Int) (|U_16| Int) (|W_8| Bool) (|.loc.5| Bool) (|.loc.6| Bool) (|.loc.7| Bool) (|.loc.8| Bool) (|W_0| (Array Int Int)) (|.x.359| Int) (|.x.357| (Array Int Int)) (|.x.355| Int) (|.x.353| (Array Int Int)) (|.x.349| Int) (|.x.351| (Array Int Int)) (|.x.350| (Array Int Int)) (|V_16| Bool) (|.x.360| Int) (|.x.361| Int) (|.x.362| Int) (|.x.364| Int) (|.loc.10| Bool) (|.x.365| Int) (|.x.363| Int) (|.x.368| Int) (|.loc.12| Bool) (|.loc.9| Bool) (|.loc.11| Bool) (|.x.369| Int) (|.x.367| Int) (|.x.366| Int) (|.x.352| (Array Int Int)) (|.x.358| Int) (|.x.354| Int) (|.x.356| (Array Int Int)) (|.xtv.1| (Array Int Int))) (=> (state |A_16| |B_16| |C_16| |D_16| |E_16| |F_16| |G_16| |H_16| |I_16| |J_16| |K_16| |L_16| |M_16| |N_16| |O_16| |P_16| |Q_16| |R_16| |S_16| |T_16| |U_16| |W_8| |.loc.5| |.loc.6| |.loc.7| |.loc.8| |W_0|) (not (and W_8 (and .loc.8 (and (not .loc.7) (and .loc.6 (not .loc.5)))))))))
(check-sat)
